 Run started: Thu, 14 Jan 2016 09:59:50 +0000
 Warning: parameters_read - missing parameters file, using defaults

 Atomic calculation performed for C: 1s2 2s2 2p2

 Converged in 56 iterations to an ae energy of -1018.807 eV

 Identity difference: 4.30E-04

   | Pseudopotential Report - Date of generation 14-01-2016   |
   | Element: C Ionic charge:  4.00 Level of theory: LDA      |
   |               Reference Electronic Structure             |
   |         Orbital         Occupation         Energy        |
   |            2s              2.000           -0.501        |
   |            2p              2.000           -0.199        |
   |                 Pseudopotential Definition               |
   |        Beta     l      e      Rc     scheme   norm       |
   |          1      0   -0.501   1.395     qc      0         |
   |          2      0    0.250   1.395     qc      0         |
   |          3      1   -0.199   1.395     qc      0         |
   |          4      1    0.250   1.395     qc      0         |
   |         loc     2    0.000   1.395     pn      0         |
   | Augmentation charge Rinner = 1.305                       |
   | Partial core correction Rc = 1.305                       |
   | "2|1.4|1.4|1.3|6|10|12|20:21(qc=6)[]"                    |
   |      Author: Chris J. Pickard, Cambridge University      |

 Doing a self consistent calculation for the test configuration

 Atomic calculation performed for C: 1s2 2s2 2p2

 Converged in 56 iterations to an ae energy of -1018.807 eV

 AE eigenvalue nl 10 =       -9.95226116
 AE eigenvalue nl 20 =       -0.50140334
 AE eigenvalue nl 21 =       -0.19918477
 PS eigenvalue nl 20 =       -0.50139111
 PS eigenvalue nl 21 =       -0.19916613
 Maximum eigenvalue error:   1.86E-05

 Derived cutoff energies: C=   4 M=   8 F=  10 E=  14

 Pseudo atomic calculation performed for C 2s2 2p2

 Converged in 15 iterations to a total energy of -145.8653 eV

 Calculation not parallelised.
 Warning: parameters_output - missing parameters file, using defaults

 ************************************ Title ************************************

 ***************************** General Parameters ******************************

 output verbosity                               : normal  (1)
 write checkpoint data to                       : C_dummy.check
 type of calculation                            : single point energy
 stress calculation                             : off
 density difference calculation                 : off
 electron localisation func (ELF) calculation   : off
 Hirshfeld analysis                             : off
 unlimited duration calculation
 timing information                             : on
 write final potential to formatted file        : off
 write final density to formatted file          : off
 write BibTeX reference list                    : on

 *********************** Exchange-Correlation Parameters ***********************

 using functional                               : Local Density Approximation
 Divergence correction                          : off
 DFT+D: Semi-empirical dispersion correction    : off

 ************************* Pseudopotential Parameters **************************

 pseudopotential representation                 : reciprocal space
 <beta|phi> representation                      : reciprocal space

 **************************** Basis Set Parameters *****************************

 basis set accuracy                             : FINE
 finite basis set correction                    : none

 **************************** Electronic Parameters ****************************

 number of  electrons                           :  4.000
 net charge of system                           :  0.000
 net spin   of system                           :  0.000
 number of  up  spins                           :  2.000
 number of down spins                           :  2.000
 treating system as non-spin-polarized
 number of bands                                :          6

 ********************* Electronic Minimization Parameters **********************

 Method: Treating system as metallic with density mixing treatment of electrons,
         and number of  SD  steps               :          1
         and number of  CG  steps               :          4

 total energy / atom convergence tol.           : 0.1000E-04   eV
 eigen-energy convergence tolerance             : 0.1000E-05   eV
 max force / atom convergence tol.              : ignored
 periodic dipole correction                     : NONE

 ************************** Density Mixing Parameters **************************

 density-mixing scheme                          : Broyden
 max. length of mixing history                  :         20

 *********************** Population Analysis Parameters ************************

 Population analysis with cutoff                :  3.000       A

                                      Unit Cell
        Real Lattice(A)                      Reciprocal Lattice(1/A)
   1.0000000   0.0000000   0.0000000        6.2831853  -0.0000000  -0.0000000
   0.0000000   1.0000000   0.0000000        0.0000000   6.2831853  -0.0000000
   0.0000000   0.0000000   1.0000000        0.0000000   0.0000000   6.2831853

                       Lattice parameters(A)       Cell Angles
                    a =    1.000000          alpha =   90.000000
                    b =    1.000000          beta  =   90.000000
                    c =    1.000000          gamma =   90.000000

                       Current cell volume =    1.000000       A**3

                                     Cell Contents
                         Total number of ions in cell =    1
                      Total number of species in cell =    1
                        Max number of any one species =    1

            x  Element    Atom        Fractional coordinates of atoms  x
            x            Number           u          v          w      x
            x  C            1         0.000000   0.000000   0.000000   x

                         No user defined ionic velocities

                                   Details of Species

                               Mass of species in AMU
                                    C   12.0107000

                          Electric Quadrupole Moment (Barn)
                                    C    0.0332700 Isotope 11

                          Files used for pseudopotentials:
                                    C 2|1.4|1.4|1.3|6|10|12|20:21(qc=6)[]

                              k-Points For BZ Sampling
                       MP grid size for SCF calculation is 11 11 11
                         Number of kpoints used =         666

             +  Number       Fractional coordinates        Weight  +
             +     1  -0.454545  -0.454545  -0.454545   0.0015026  +
             +     2  -0.454545  -0.454545  -0.363636   0.0015026  +
             +     3  -0.454545  -0.454545  -0.181818   0.0015026  +
             +     4  -0.454545  -0.454545  -0.090909   0.0015026  +
             +     5  -0.454545  -0.454545   0.000000   0.0015026  +
             +     6  -0.454545  -0.454545   0.090909   0.0015026  +
             +     7  -0.454545  -0.454545   0.454545   0.0015026  +
             +     8  -0.454545  -0.363636  -0.454545   0.0015026  +
             +     9  -0.454545  -0.363636  -0.363636   0.0015026  +
             +    10  -0.454545  -0.363636  -0.272727   0.0015026  +
             +    11  -0.454545  -0.363636   0.000000   0.0015026  +
             +    12  -0.454545  -0.363636   0.090909   0.0015026  +
             +    13  -0.454545  -0.363636   0.181818   0.0015026  +
             +    14  -0.454545  -0.363636   0.272727   0.0015026  +
             +    15  -0.454545  -0.363636   0.454545   0.0015026  +
             +    16  -0.454545  -0.272727  -0.454545   0.0015026  +
             +    17  -0.454545  -0.272727  -0.272727   0.0015026  +
             +    18  -0.454545  -0.272727  -0.181818   0.0015026  +
             +    19  -0.454545  -0.272727   0.181818   0.0015026  +
             +    20  -0.454545  -0.272727   0.272727   0.0015026  +
             +    21  -0.454545  -0.272727   0.363636   0.0015026  +
             +    22  -0.454545  -0.272727   0.454545   0.0015026  +
             +    23  -0.454545  -0.181818  -0.272727   0.0015026  +
             +    24  -0.454545  -0.181818  -0.181818   0.0015026  +
             +    25  -0.454545  -0.181818  -0.090909   0.0015026  +
             +    26  -0.454545  -0.181818   0.090909   0.0015026  +
             +    27  -0.454545  -0.090909  -0.363636   0.0015026  +
             +    28  -0.454545  -0.090909  -0.272727   0.0015026  +
             +    29  -0.454545  -0.090909   0.363636   0.0015026  +
             +    30  -0.454545   0.000000  -0.454545   0.0015026  +
             +    31  -0.454545   0.000000   0.272727   0.0015026  +
             +    32  -0.454545   0.000000   0.454545   0.0015026  +
             +    33  -0.454545   0.090909  -0.454545   0.0015026  +
             +    34  -0.454545   0.090909  -0.363636   0.0015026  +
             +    35  -0.454545   0.090909  -0.272727   0.0015026  +
             +    36  -0.454545   0.090909  -0.181818   0.0015026  +
             +    37  -0.454545   0.090909  -0.090909   0.0015026  +
             +    38  -0.454545   0.090909   0.000000   0.0015026  +
             +    39  -0.454545   0.090909   0.181818   0.0015026  +
             +    40  -0.454545   0.090909   0.272727   0.0015026  +
             +    41  -0.454545   0.090909   0.363636   0.0015026  +
             +    42  -0.454545   0.181818  -0.181818   0.0015026  +
             +    43  -0.454545   0.181818  -0.090909   0.0015026  +
             +    44  -0.454545   0.181818   0.272727   0.0015026  +
             +    45  -0.454545   0.181818   0.363636   0.0015026  +
             +    46  -0.454545   0.181818   0.454545   0.0015026  +
             +    47  -0.454545   0.272727  -0.363636   0.0015026  +
             +    48  -0.454545   0.272727  -0.272727   0.0015026  +
             +    49  -0.454545   0.272727  -0.181818   0.0015026  +
             +    50  -0.454545   0.272727   0.272727   0.0015026  +
             +    51  -0.454545   0.272727   0.454545   0.0015026  +
             +    52  -0.454545   0.363636   0.000000   0.0015026  +
             +    53  -0.454545   0.363636   0.454545   0.0015026  +
             +    54  -0.454545   0.454545  -0.454545   0.0015026  +
             +    55  -0.454545   0.454545  -0.363636   0.0015026  +
             +    56  -0.454545   0.454545  -0.272727   0.0015026  +
             +    57  -0.454545   0.454545   0.090909   0.0015026  +
             +    58  -0.454545   0.454545   0.181818   0.0015026  +
             +    59  -0.454545   0.454545   0.363636   0.0015026  +
             +    60  -0.363636  -0.454545  -0.454545   0.0015026  +
[...]
             +   652   0.454545   0.181818  -0.181818   0.0015026  +
             +   653   0.454545   0.181818   0.000000   0.0015026  +
             +   654   0.454545   0.181818   0.363636   0.0015026  +
             +   655   0.454545   0.181818   0.454545   0.0015026  +
             +   656   0.454545   0.272727  -0.090909   0.0015026  +
             +   657   0.454545   0.272727   0.000000   0.0015026  +
             +   658   0.454545   0.272727   0.090909   0.0015026  +
             +   659   0.454545   0.272727   0.363636   0.0015026  +
             +   660   0.454545   0.363636  -0.363636   0.0015026  +
             +   661   0.454545   0.363636   0.090909   0.0015026  +
             +   662   0.454545   0.363636   0.181818   0.0015026  +
             +   663   0.454545   0.454545  -0.363636   0.0015026  +
             +   664   0.454545   0.454545  -0.272727   0.0015026  +
             +   665   0.454545   0.454545  -0.181818   0.0015026  +
             +   666   0.454545   0.454545   0.272727   0.0015026  +

                               Symmetry and Constraints

                      Maximum deviation from symmetry =  0.00000         ANG

         There are no symmetry operations specified or generated for this cell
                      Number of ionic constraints     =           3
                      Point group of crystal =     1: C1, 1, 1

                         Centre of mass is constrained
             Set iprint > 1 for details of linear ionic constraints

                         Number of cell constraints= 0
                         Cell constraints are:  1 2 3 4 5 6

                         External pressure/stress (GPa)
                          0.00000   0.00000   0.00000
                                    0.00000   0.00000
                                              0.00000

            Bond                    Length (A)

             |       DRYRUN finished ...                       |
             |       No problems found with input files.       |

Initialisation time =      2.93 s
Calculation time    =      0.00 s
Finalisation time   =      0.00 s
Total time          =      2.93 s